(set-logic HORN)
(set-info :source |
    Benchmark: C_VC
    Output by Princess (http://www.philipp.ruemmer.org/princess.shtml)
|)
(set-info :status unknown)
(declare-fun inv_main100 (Int Int Int Int Int Int Int Int Int) Bool)
(declare-fun inv_main101 (Int Int Int Int Int Int Int Int Int) Bool)
(declare-fun inv_main102 (Int Int Int Int Int Int Int Int Int) Bool)
(declare-fun inv_main103 (Int Int Int Int Int Int Int Int Int) Bool)
(declare-fun inv_main104 (Int Int Int Int Int Int Int Int Int) Bool)
(declare-fun inv_main105 (Int Int Int Int Int Int Int Int Int) Bool)
(declare-fun inv_main106 (Int Int Int Int Int Int Int Int Int) Bool)
(declare-fun inv_main107 (Int Int Int Int Int Int Int Int Int) Bool)
(declare-fun inv_main108 (Int Int Int Int Int Int Int Int Int) Bool)
(declare-fun inv_main11 (Int Int Int Int Int Int Int Int Int) Bool)
(declare-fun inv_main26 (Int Int Int Int Int Int Int Int Int) Bool)
(declare-fun inv_main29 (Int Int Int Int Int Int Int Int Int) Bool)
(declare-fun inv_main99 (Int Int Int Int Int Int Int Int Int) Bool)
(assert (forall ((var0 Int)) (forall ((var1 Int)) (forall ((var2 Int)) (forall ((var3 Int)) (forall ((var4 Int)) (forall ((var5 Int)) (forall ((var6 Int)) (forall ((var7 Int)) (forall ((var8 Int)) (inv_main11 var3 var7 var8 var1 var5 var2 var6 var4 var0 ) ) ) ) ) ) ) ) ) ) )
(assert (forall ((var0 Int)) (forall ((var1 Int)) (forall ((var2 Int)) (forall ((var3 Int)) (forall ((var4 Int)) (forall ((var5 Int)) (forall ((var6 Int)) (forall ((var7 Int)) (forall ((var8 Int)) (or (not (inv_main29 var6 var0 var3 var8 var7 var5 var4 var2 var1 ) ) (inv_main99 var6 var0 var3 var8 var7 var5 var4 var2 var1 ) ) ) ) ) ) ) ) ) ) ) )
(assert (forall ((var0 Int)) (forall ((var1 Int)) (forall ((var2 Int)) (forall ((var3 Int)) (forall ((var4 Int)) (forall ((var5 Int)) (forall ((var6 Int)) (forall ((var7 Int)) (forall ((var8 Int)) (or (not (inv_main99 var6 var0 var3 var8 var7 var5 var4 var2 var1 ) ) (inv_main100 var6 var0 var3 var8 var7 var5 var4 var2 var1 ) ) ) ) ) ) ) ) ) ) ) )
(assert (forall ((var0 Int)) (forall ((var1 Int)) (forall ((var2 Int)) (forall ((var3 Int)) (forall ((var4 Int)) (forall ((var5 Int)) (forall ((var6 Int)) (forall ((var7 Int)) (forall ((var8 Int)) (or (not (inv_main100 var6 var0 var3 var8 var7 var5 var4 var2 var1 ) ) (inv_main101 var6 var0 var3 var8 var7 var5 var4 var2 var1 ) ) ) ) ) ) ) ) ) ) ) )
(assert (forall ((var0 Int)) (forall ((var1 Int)) (forall ((var2 Int)) (forall ((var3 Int)) (forall ((var4 Int)) (forall ((var5 Int)) (forall ((var6 Int)) (forall ((var7 Int)) (forall ((var8 Int)) (or (not (inv_main101 var6 var0 var3 var8 var7 var5 var4 var2 var1 ) ) (inv_main102 var6 var0 var3 var8 var7 var5 var4 var2 var1 ) ) ) ) ) ) ) ) ) ) ) )
(assert (forall ((var0 Int)) (forall ((var1 Int)) (forall ((var2 Int)) (forall ((var3 Int)) (forall ((var4 Int)) (forall ((var5 Int)) (forall ((var6 Int)) (forall ((var7 Int)) (forall ((var8 Int)) (or (not (inv_main102 var6 var0 var3 var8 var7 var5 var4 var2 var1 ) ) (inv_main103 var6 var0 var3 var8 var7 var5 var4 var2 var1 ) ) ) ) ) ) ) ) ) ) ) )
(assert (forall ((var0 Int)) (forall ((var1 Int)) (forall ((var2 Int)) (forall ((var3 Int)) (forall ((var4 Int)) (forall ((var5 Int)) (forall ((var6 Int)) (forall ((var7 Int)) (forall ((var8 Int)) (or (not (inv_main103 var6 var0 var3 var8 var7 var5 var4 var2 var1 ) ) (inv_main104 var6 var0 var3 var8 var7 var5 var4 var2 var1 ) ) ) ) ) ) ) ) ) ) ) )
(assert (forall ((var0 Int)) (forall ((var1 Int)) (forall ((var2 Int)) (forall ((var3 Int)) (forall ((var4 Int)) (forall ((var5 Int)) (forall ((var6 Int)) (forall ((var7 Int)) (forall ((var8 Int)) (or (not (inv_main104 var6 var0 var3 var8 var7 var5 var4 var2 var1 ) ) (inv_main105 var6 var0 var3 var8 var7 var5 var4 var2 var1 ) ) ) ) ) ) ) ) ) ) ) )
(assert (forall ((var0 Int)) (forall ((var1 Int)) (forall ((var2 Int)) (forall ((var3 Int)) (forall ((var4 Int)) (forall ((var5 Int)) (forall ((var6 Int)) (forall ((var7 Int)) (forall ((var8 Int)) (or (not (inv_main105 var6 var0 var3 var8 var7 var5 var4 var2 var1 ) ) (inv_main106 var6 var0 var3 var8 var7 var5 var4 var2 var1 ) ) ) ) ) ) ) ) ) ) ) )
(assert (forall ((var0 Int)) (forall ((var1 Int)) (forall ((var2 Int)) (forall ((var3 Int)) (forall ((var4 Int)) (forall ((var5 Int)) (forall ((var6 Int)) (forall ((var7 Int)) (forall ((var8 Int)) (or (not (inv_main106 var6 var0 var3 var8 var7 var5 var4 var2 var1 ) ) (inv_main107 var6 var0 var3 var8 var7 var5 var4 var2 var1 ) ) ) ) ) ) ) ) ) ) ) )
(assert (forall ((var0 Int)) (forall ((var1 Int)) (forall ((var2 Int)) (forall ((var3 Int)) (forall ((var4 Int)) (forall ((var5 Int)) (forall ((var6 Int)) (forall ((var7 Int)) (forall ((var8 Int)) (or (not (inv_main107 var6 var0 var3 var8 var7 var5 var4 var2 var1 ) ) (inv_main108 var6 var0 var3 var8 var7 var5 var4 var2 var1 ) ) ) ) ) ) ) ) ) ) ) )
(assert (forall ((var0 Int)) (forall ((var1 Int)) (forall ((var2 Int)) (forall ((var3 Int)) (forall ((var4 Int)) (forall ((var5 Int)) (forall ((var6 Int)) (forall ((var7 Int)) (forall ((var8 Int)) (or (not (and (inv_main11 var6 var0 var3 var8 var7 var5 var4 var2 var1 ) (and (<= 0 (+ var1 (- 1) ) ) (and (<= 0 (+ var2 (- 1) ) ) (and (= var4 var1 ) (= var5 var2 ) ) ) ) ) ) (inv_main26 0 0 0 0 0 var5 var4 var2 var1 ) ) ) ) ) ) ) ) ) ) ) )
(assert (forall ((var0 Int)) (forall ((var1 Int)) (forall ((var2 Int)) (forall ((var3 Int)) (forall ((var4 Int)) (forall ((var5 Int)) (forall ((var6 Int)) (forall ((var7 Int)) (forall ((var8 Int)) (forall ((var9 Int)) (or (not (and (inv_main26 var6 var0 var3 var9 var8 var5 var4 var2 var1 ) (= var7 0 ) ) ) (inv_main29 var6 var0 var3 var9 var8 var5 var4 var2 var1 ) ) ) ) ) ) ) ) ) ) ) ) )
(assert (forall ((var0 Int)) (forall ((var1 Int)) (forall ((var2 Int)) (forall ((var3 Int)) (forall ((var4 Int)) (forall ((var5 Int)) (forall ((var6 Int)) (forall ((var7 Int)) (forall ((var8 Int)) (forall ((var9 Int)) (forall ((var10 Int)) (or (not (and (inv_main26 var7 var0 var3 var10 var9 var5 var4 var2 var1 ) (and (<= 0 (+ var5 (- 1) ) ) (and (not (= var6 0 ) ) (not (= var8 0 ) ) ) ) ) ) (inv_main26 (+ var7 1 ) var0 var3 var10 var9 (+ var5 (- 1) ) var4 var2 var1 ) ) ) ) ) ) ) ) ) ) ) ) ) )
(assert (forall ((var0 Int)) (forall ((var1 Int)) (forall ((var2 Int)) (forall ((var3 Int)) (forall ((var4 Int)) (forall ((var5 Int)) (forall ((var6 Int)) (forall ((var7 Int)) (forall ((var8 Int)) (forall ((var9 Int)) (forall ((var10 Int)) (forall ((var11 Int)) (or (not (and (inv_main26 var8 var0 var4 var11 var10 var6 var5 var3 var1 ) (and (<= 0 (+ var5 (- 1) ) ) (and (<= 0 (+ var8 (- 1) ) ) (and (not (= var7 0 ) ) (and (= var2 0 ) (not (= var9 0 ) ) ) ) ) ) ) ) (inv_main26 (+ var8 (- 1) ) (+ var0 1 ) var4 var11 var10 var6 (+ var5 (- 1) ) var3 var1 ) ) ) ) ) ) ) ) ) ) ) ) ) ) )
(assert (forall ((var0 Int)) (forall ((var1 Int)) (forall ((var2 Int)) (forall ((var3 Int)) (forall ((var4 Int)) (forall ((var5 Int)) (forall ((var6 Int)) (forall ((var7 Int)) (forall ((var8 Int)) (forall ((var9 Int)) (forall ((var10 Int)) (forall ((var11 Int)) (forall ((var12 Int)) (or (not (and (inv_main26 var9 var0 var6 var12 var11 var8 var7 var5 var1 ) (and (<= 0 (+ var0 (- 1) ) ) (and (not (= var4 0 ) ) (and (= var3 0 ) (and (= var2 0 ) (not (= var10 0 ) ) ) ) ) ) ) ) (inv_main26 var9 (+ var0 (- 1) ) (+ var6 1 ) var12 var11 (+ var8 1 ) var7 var5 var1 ) ) ) ) ) ) ) ) ) ) ) ) ) ) ) )
(assert (forall ((var0 Int)) (forall ((var1 Int)) (forall ((var2 Int)) (forall ((var3 Int)) (forall ((var4 Int)) (forall ((var5 Int)) (forall ((var6 Int)) (forall ((var7 Int)) (forall ((var8 Int)) (forall ((var9 Int)) (forall ((var10 Int)) (forall ((var11 Int)) (forall ((var12 Int)) (forall ((var13 Int)) (or (not (and (inv_main26 var5 var0 var12 var7 var6 var3 var2 var11 var9 ) (and (<= 0 (+ var3 (- 1) ) ) (and (<= 0 (+ var12 (- 1) ) ) (and (not (= var8 0 ) ) (and (= var4 0 ) (and (= var1 0 ) (and (= var10 0 ) (not (= var13 0 ) ) ) ) ) ) ) ) ) ) (inv_main26 var5 var0 (+ var12 (- 1) ) (+ var7 1 ) var6 (+ var3 (- 1) ) var2 var11 var9 ) ) ) ) ) ) ) ) ) ) ) ) ) ) ) ) )
(assert (forall ((var0 Int)) (forall ((var1 Int)) (forall ((var2 Int)) (forall ((var3 Int)) (forall ((var4 Int)) (forall ((var5 Int)) (forall ((var6 Int)) (forall ((var7 Int)) (forall ((var8 Int)) (forall ((var9 Int)) (forall ((var10 Int)) (forall ((var11 Int)) (forall ((var12 Int)) (forall ((var13 Int)) (forall ((var14 Int)) (or (not (and (inv_main26 var6 var14 var12 var8 var7 var3 var2 var11 var9 ) (and (<= 0 (+ var8 (- 1) ) ) (and (not (= var5 0 ) ) (and (= var0 0 ) (and (= var4 0 ) (and (= var1 0 ) (and (= var10 0 ) (not (= var13 0 ) ) ) ) ) ) ) ) ) ) (inv_main26 var6 var14 var12 (+ var8 (- 1) ) (+ var7 1 ) var3 (+ var2 1 ) var11 var9 ) ) ) ) ) ) ) ) ) ) ) ) ) ) ) ) ) )
(assert (forall ((var0 Int)) (forall ((var1 Int)) (forall ((var2 Int)) (forall ((var3 Int)) (forall ((var4 Int)) (forall ((var5 Int)) (forall ((var6 Int)) (forall ((var7 Int)) (forall ((var8 Int)) (forall ((var9 Int)) (forall ((var10 Int)) (forall ((var11 Int)) (forall ((var12 Int)) (forall ((var13 Int)) (forall ((var14 Int)) (or (not (and (inv_main26 var5 var13 var11 var7 var6 var3 var2 var10 var8 ) (and (<= 0 (+ var6 (- 1) ) ) (and (= var0 0 ) (and (= var14 0 ) (and (= var4 0 ) (and (= var1 0 ) (and (= var9 0 ) (not (= var12 0 ) ) ) ) ) ) ) ) ) ) (inv_main26 var5 var13 var11 var7 (+ var6 (- 1) ) (+ var3 1 ) var2 var10 var8 ) ) ) ) ) ) ) ) ) ) ) ) ) ) ) ) ) )
(assert (forall ((var0 Int)) (forall ((var1 Int)) (forall ((var2 Int)) (forall ((var3 Int)) (forall ((var4 Int)) (forall ((var5 Int)) (forall ((var6 Int)) (forall ((var7 Int)) (forall ((var8 Int)) (not (and (inv_main29 var6 var0 var3 var8 var7 var5 var4 var2 var1 ) (not (= (+ (+ (+ var0 var3 ) var8 ) var4 ) var1 ) ) ) ) ) ) ) ) ) ) ) ) ) )
(assert (forall ((var0 Int)) (forall ((var1 Int)) (forall ((var2 Int)) (forall ((var3 Int)) (forall ((var4 Int)) (forall ((var5 Int)) (forall ((var6 Int)) (forall ((var7 Int)) (forall ((var8 Int)) (not (and (inv_main99 var6 var0 var3 var8 var7 var5 var4 var2 var1 ) (not (= (+ (+ (+ (+ var6 var0 ) var8 ) var7 ) var5 ) var2 ) ) ) ) ) ) ) ) ) ) ) ) ) )
(assert (forall ((var0 Int)) (forall ((var1 Int)) (forall ((var2 Int)) (forall ((var3 Int)) (forall ((var4 Int)) (forall ((var5 Int)) (forall ((var6 Int)) (forall ((var7 Int)) (forall ((var8 Int)) (not (and (inv_main100 var6 var0 var3 var8 var7 var5 var4 var2 var1 ) (not (<= 0 var4 ) ) ) ) ) ) ) ) ) ) ) ) ) )
(assert (forall ((var0 Int)) (forall ((var1 Int)) (forall ((var2 Int)) (forall ((var3 Int)) (forall ((var4 Int)) (forall ((var5 Int)) (forall ((var6 Int)) (forall ((var7 Int)) (forall ((var8 Int)) (not (and (inv_main101 var6 var0 var3 var8 var7 var5 var4 var2 var1 ) (not (<= 0 var5 ) ) ) ) ) ) ) ) ) ) ) ) ) )
(assert (forall ((var0 Int)) (forall ((var1 Int)) (forall ((var2 Int)) (forall ((var3 Int)) (forall ((var4 Int)) (forall ((var5 Int)) (forall ((var6 Int)) (forall ((var7 Int)) (forall ((var8 Int)) (not (and (inv_main102 var6 var0 var3 var8 var7 var5 var4 var2 var1 ) (not (<= 0 var7 ) ) ) ) ) ) ) ) ) ) ) ) ) )
(assert (forall ((var0 Int)) (forall ((var1 Int)) (forall ((var2 Int)) (forall ((var3 Int)) (forall ((var4 Int)) (forall ((var5 Int)) (forall ((var6 Int)) (forall ((var7 Int)) (forall ((var8 Int)) (not (and (inv_main103 var6 var0 var3 var8 var7 var5 var4 var2 var1 ) (not (<= 0 var8 ) ) ) ) ) ) ) ) ) ) ) ) ) )
(assert (forall ((var0 Int)) (forall ((var1 Int)) (forall ((var2 Int)) (forall ((var3 Int)) (forall ((var4 Int)) (forall ((var5 Int)) (forall ((var6 Int)) (forall ((var7 Int)) (forall ((var8 Int)) (not (and (inv_main104 var6 var0 var3 var8 var7 var5 var4 var2 var1 ) (not (<= 0 var3 ) ) ) ) ) ) ) ) ) ) ) ) ) )
(assert (forall ((var0 Int)) (forall ((var1 Int)) (forall ((var2 Int)) (forall ((var3 Int)) (forall ((var4 Int)) (forall ((var5 Int)) (forall ((var6 Int)) (forall ((var7 Int)) (forall ((var8 Int)) (not (and (inv_main105 var6 var0 var3 var8 var7 var5 var4 var2 var1 ) (not (<= 0 var0 ) ) ) ) ) ) ) ) ) ) ) ) ) )
(assert (forall ((var0 Int)) (forall ((var1 Int)) (forall ((var2 Int)) (forall ((var3 Int)) (forall ((var4 Int)) (forall ((var5 Int)) (forall ((var6 Int)) (forall ((var7 Int)) (forall ((var8 Int)) (not (and (inv_main106 var6 var0 var3 var8 var7 var5 var4 var2 var1 ) (not (<= 0 var6 ) ) ) ) ) ) ) ) ) ) ) ) ) )
(assert (forall ((var0 Int)) (forall ((var1 Int)) (forall ((var2 Int)) (forall ((var3 Int)) (forall ((var4 Int)) (forall ((var5 Int)) (forall ((var6 Int)) (forall ((var7 Int)) (forall ((var8 Int)) (not (and (inv_main107 var6 var0 var3 var8 var7 var5 var4 var2 var1 ) (not (<= 0 (+ (+ (+ (+ var0 var3 ) var8 ) var4 ) (- 1) ) ) ) ) ) ) ) ) ) ) ) ) ) ) )
(assert (forall ((var0 Int)) (forall ((var1 Int)) (forall ((var2 Int)) (forall ((var3 Int)) (forall ((var4 Int)) (forall ((var5 Int)) (forall ((var6 Int)) (forall ((var7 Int)) (forall ((var8 Int)) (not (and (inv_main108 var6 var0 var3 var8 var7 var5 var4 var2 var1 ) (not (<= 0 (+ (+ (+ (+ (+ var6 var0 ) var8 ) var7 ) var5 ) (- 1) ) ) ) ) ) ) ) ) ) ) ) ) ) ) )
(check-sat)
